data/solutions/recovery/degenerate/intermediate/binding/degenerate_intermediate_instance38/20.sol
Elapsed time: 0.04
Upper bound: 313205.0
Planning weighted value: 14232870437.0
C[0]=313205.0
C[1]=312398.0
C[2]=311644.0
C[3]=308498.0
C[4]=300529.0
C[5]=289293.0
C[6]=287801.0
C[7]=287345.0
C[8]=282383.0
C[9]=279224.0
C[10]=272879.0
C[11]=270360.0
C[12]=268859.0
C[13]=0.0
C[14]=0.0
C[15]=0.0
y[0]=1
y[1]=1
y[2]=1
y[3]=6
y[4]=10
y[5]=8
y[6]=7
y[7]=1
y[8]=8
y[9]=11
y[10]=5
y[11]=8
y[12]=1
y[13]=5
y[14]=11
y[15]=7
y[16]=4
y[17]=3
y[18]=7
y[19]=3
y[20]=12
y[21]=10
y[22]=5
y[23]=2
y[24]=11
y[25]=3
y[26]=3
y[27]=11
y[28]=10
y[29]=6
y[30]=6
y[31]=4
y[32]=9
y[33]=8
y[34]=5
y[35]=6
y[36]=12
y[37]=7
y[38]=0
y[39]=9
y[40]=4
y[41]=11
y[42]=2
y[43]=5
y[44]=2
y[45]=12
y[46]=12
y[47]=10
y[48]=9
y[49]=8
y[50]=7
y[51]=0
y[52]=10
y[53]=9
y[54]=2
y[55]=9
y[56]=12
y[57]=0
y[58]=2
y[59]=1
y[60]=5
y[61]=0
y[62]=6
y[63]=3
y[64]=2
y[65]=4
