data/solutions/recovery/degenerate/intermediate/binding/degenerate_intermediate_instance38/20.log

Log started (V12.6.3.0) Sun Apr 22 12:34:45 2018

New value for default parallel thread count: 1

Problem '/tmp/tmps_3aUu.pyomo.lp' read.
Read time = 0.01 sec. (0.71 ticks)

Problem name         : /tmp/tmps_3aUu.pyomo.lp
Objective sense      : Minimize
Variables            :    1074  [Nneg: 1,  Binary: 1056,  General Integer: 17]
Objective nonzeros   :       1
Linear constraints   :     168  [Less: 82,  Equal: 86]
  Nonzeros           :   50853
  RHS nonzeros       :      67

Variables            : Min LB: 0.000000         Max UB: 1.000000       
Objective nonzeros   : Min   : 1.000000         Max   : 1.000000       
Linear constraints   :
  Nonzeros           : Min   : 1.000000         Max   : 117484.0       
  RHS nonzeros       : Min   : 1.000000         Max   : 1.000000       
Tried aggregator 2 times.
MIP Presolve eliminated 125 rows and 839 columns.
Aggregator did 13 substitutions.
Reduced MIP has 30 rows, 222 columns, and 455 nonzeros.
Reduced MIP has 221 binaries, 1 generals, 0 SOSs, and 0 indicators.
Presolve time = 0.00 sec. (3.92 ticks)
Found incumbent of value 1293437.000000 after 0.01 sec. (5.23 ticks)
Probing time = 0.00 sec. (0.30 ticks)
Cover probing fixed 0 vars, tightened 2 bounds.
Tried aggregator 1 time.
Reduced MIP has 30 rows, 222 columns, and 455 nonzeros.
Reduced MIP has 221 binaries, 1 generals, 0 SOSs, and 0 indicators.
Presolve time = 0.00 sec. (0.40 ticks)
Probing time = 0.00 sec. (0.30 ticks)
Clique table members: 17.
MIP emphasis: balance optimality and feasibility.
MIP search method: dynamic search.
Parallel mode: none, using 1 thread.
Root relaxation solution time = 0.00 sec. (0.41 ticks)

        Nodes                                         Cuts/
   Node  Left     Objective  IInf  Best Integer    Best Bound    ItCnt     Gap

*     0+    0                      1293437.0000   245665.0000            81.01%
      0     0   291109.0769    24  1293437.0000   291109.0769       63   77.49%
*     0+    0                       326853.0000   291109.0769            10.94%
      0     0   291110.0000    28   326853.0000      Cuts: 13      104   10.94%
*     0+    0                       326709.0000   291110.0000            10.90%
      0     0   291110.0000    36   326709.0000      Cuts: 20      195   10.90%
*     0+    0                       326126.0000   291110.0000            10.74%
*     0+    0                       313870.0000   291110.0000             7.25%
*     0+    0                       313205.0000   291110.0000             7.05%
      0     0        cutoff         313205.0000   291110.0000      195    7.05%
Elapsed time = 0.02 sec. (16.11 ticks, tree = 0.01 MB, solutions = 5)

Implied bound cuts applied:  1
Mixed integer rounding cuts applied:  5
Gomory fractional cuts applied:  1

Root node processing (before b&c):
  Real time             =    0.02 sec. (16.17 ticks)
Sequential b&c:
  Real time             =    0.00 sec. (0.01 ticks)
                          ------------
Total (root+branch&cut) =    0.02 sec. (16.18 ticks)

Solution pool: 5 solutions saved.

MIP - Integer optimal solution:  Objective =  3.1320500000e+05
Solution time =    0.02 sec.  Iterations = 195  Nodes = 0
Deterministic time = 16.18 ticks  (1000.78 ticks/sec)


Incumbent solution written to file '/tmp/tmprfXdpu.cplex.sol'.
